NAME: I12930-n40-k3
COMMENT : (Fake et al, No of trucks: 3, Optimal value: )
TYPE : CVRP
DIMENSION : 40
EDGE_WEIGHT_TYPE : EUC_2D
CAPACITY : 52
NODE_COORD_SECTION
1 10 108
2 193 337
3 302 277
4 27 565
5 357 366
6 427 758
7 434 548
8 521 743
9 834 427
10 717 828
11 684 48
12 325 264
13 920 712
14 54 692
15 559 583
16 834 755
17 712 427
18 529 580
19 520 216
20 274 926
21 450 753
22 116 384
23 907 845
24 745 938
25 950 471
26 671 567
27 879 934
28 86 957
29 610 766
30 553 622
31 348 132
32 336 176
33 664 742
34 181 28
35 65 416
36 944 956
37 21 772
38 145 641
39 221 909
40 346 164
DEMAND_SECTION
1 0
2 5
3 2
4 3
5 6
6 5
7 6
8 1
9 5
10 2
11 4
12 2
13 2
14 6
15 1
16 1
17 6
18 6
19 5
20 2
21 4
22 1
23 1
24 1
25 6
26 2
27 3
28 3
29 5
30 4
31 6
32 6
33 3
34 4
35 3
36 2
37 4
38 4
39 3
40 3
DEPOT_SECTION
 1
 -1
 EOF 